NAME: ParkingMeters
TYPE: TSP
COMMENT: driving time (seconds)
DIMENSION:  7
EDGE_WEIGHT_TYPE: EXPLICIT
EDGE_WEIGHT_FORMAT: FULL_MATRIX
EDGE_WEIGHT_SECTION
0 322 408 3256 0 6395 3024
322 0 121 3037 322 6335 2724
408 121 0 2916 408 6416 2693
3256 3037 2916 0 3256 8612 3392
0 322 408 3256 0 6395 3024
6395 6335 6416 8612 6395 0 0
3024 2724 2693 3392 3024 0 0
